(set-info :source |printed by MathSAT|)
(declare-fun call_mesi.invalid_me.next () Int)
(declare-fun call_mesi.shared_me () Int)
(declare-fun call_mesi.ite28.next () Int)
(declare-fun param_etat_me4 () Bool)
(declare-fun call_mesi.ite11 () Int)
(declare-fun param_etat_me1.next () Bool)
(declare-fun call_mesi.ite7 () Int)
(declare-fun call_mesi.ite4.next () Int)
(declare-fun shared_me () Int)
(declare-fun call_mesi.ite29.next () Int)
(declare-fun call_mesi.flby4 () Int)
(declare-fun shared_me.next () Int)
(declare-fun call_mesi.ite17 () Int)
(declare-fun call_mesi.ite25.next () Int)
(declare-fun call_Sofar.flby () Bool)
(declare-fun _OK_.next () Bool)
(declare-fun call_excludes4.excludes.next () Bool)
(declare-fun _OK_ () Bool)
(declare-fun call_mesi.ite32 () Int)
(declare-fun call_mesi.flby () Int)
(declare-fun call_mesi.flby2 () Int)
(declare-fun call_mesi.modified_me.next () Int)
(declare-fun call_mesi.invalid_me () Int)
(declare-fun call_mesi.flby3.next () Int)
(declare-fun call_Sofar.Sofar.next () Bool)
(declare-fun call_mesi.modified_me () Int)
(declare-fun call_mesi.garde_me2.next () Bool)
(declare-fun call_mesi.ite8.next () Int)
(declare-fun call_mesi.garde_me4.next () Bool)
(declare-fun call_mesi.ite26 () Int)
(declare-fun call_mesi.flby.next () Int)
(declare-fun call_mesi.ite31.next () Int)
(declare-fun call_mesi.ite15.next () Int)
(declare-fun call_mesi.ite9 () Int)
(declare-fun call_mesi.ite26.next () Int)
(declare-fun call_mesi.ite20.next () Int)
(declare-fun call_mesi.ite22.next () Int)
(declare-fun call_mesi.ite3 () Int)
(declare-fun call_mesi.ite6 () Int)
(declare-fun call_mesi.ite21 () Int)
(declare-fun call_mesi.ite9.next () Int)
(declare-fun env () Bool)
(declare-fun param_etat_me3 () Bool)
(declare-fun call_mesi.ite6.next () Int)
(declare-fun call_mesi.ite23 () Int)
(declare-fun call_mesi.ite24 () Int)
(declare-fun call_Sofar.Sofar () Bool)
(declare-fun call_mesi.ite23.next () Int)
(declare-fun call_excludes4.excludes () Bool)
(declare-fun call_mesi.ite22 () Int)
(declare-fun call_mesi.ite29 () Int)
(declare-fun call_mesi.ite32.next () Int)
(declare-fun call_mesi.ite18 () Int)
(declare-fun call_mesi.ite11.next () Int)
(declare-fun param_etat_me3.next () Bool)
(declare-fun call_mesi.ite18.next () Int)
(declare-fun call_mesi.ite2.next () Int)
(declare-fun call_mesi.flby2.next () Int)
(declare-fun param_etat_me1 () Bool)
(declare-fun call_mesi.ite19.next () Int)
(declare-fun param_etat_me2 () Bool)
(declare-fun call_mesi.ite10 () Int)
(declare-fun call_mesi.ite15 () Int)
(declare-fun call_mesi.ite14 () Int)
(declare-fun param_etat_me4.next () Bool)
(declare-fun call_mesi.ite30 () Int)
(declare-fun call_mesi.ite14.next () Int)
(declare-fun call_mesi.ite21.next () Int)
(declare-fun call_mesi.ite24.next () Int)
(declare-fun call_mesi.ite.next () Int)
(declare-fun exclusive_me () Int)
(declare-fun call_mesi.ite13.next () Int)
(declare-fun exclusive_me.next () Int)
(declare-fun call_mesi.ite5 () Int)
(declare-fun call_mesi.ite17.next () Int)
(declare-fun call_mesi.shared_me.next () Int)
(declare-fun call_mesi.garde_me1.next () Bool)
(declare-fun call_mesi.ite12.next () Int)
(declare-fun call_mesi.ite13 () Int)
(declare-fun call_mesi.ite31 () Int)
(declare-fun env.next () Bool)
(declare-fun param_etat_me2.next () Bool)
(declare-fun modified_me () Int)
(declare-fun modified_me.next () Int)
(declare-fun call_mesi.flby3 () Int)
(declare-fun call_mesi.ite19 () Int)
(declare-fun call_mesi.ite27.next () Int)
(declare-fun invalid_me () Int)
(declare-fun call_mesi.ite8 () Int)
(declare-fun call_mesi.exclusive_me () Int)
(declare-fun call_mesi.ite7.next () Int)
(declare-fun call_mesi.ite27 () Int)
(declare-fun call_mesi.ite16.next () Int)
(declare-fun call_mesi.ite2 () Int)
(declare-fun call_mesi.ite () Int)
(declare-fun invalid_me.next () Int)
(declare-fun call_Sofar.flby.next () Bool)
(declare-fun call_mesi.ite3.next () Int)
(declare-fun call_mesi.ite25 () Int)
(declare-fun call_mesi.ite30.next () Int)
(declare-fun call_mesi.exclusive_me.next () Int)
(declare-fun call_mesi.garde_me3.next () Bool)
(declare-fun call_mesi.ite5.next () Int)
(declare-fun call_mesi.ite10.next () Int)
(declare-fun call_mesi.flby4.next () Int)
(declare-fun call_mesi.ite16 () Int)
(define-fun .def_1147 () Bool (= call_Sofar.flby.next call_Sofar.Sofar.next))
(define-fun .def_1142 () Bool (and param_etat_me4.next param_etat_me3.next))
(define-fun .def_1137 () Bool (and param_etat_me1.next param_etat_me2.next))
(define-fun .def_1136 () Bool (and param_etat_me3.next param_etat_me1.next))
(define-fun .def_1138 () Bool (or .def_1136 .def_1137))
(define-fun .def_1135 () Bool (and param_etat_me4.next param_etat_me1.next))
(define-fun .def_1139 () Bool (or .def_1135 .def_1138))
(define-fun .def_1134 () Bool (and param_etat_me3.next param_etat_me2.next))
(define-fun .def_1140 () Bool (or .def_1134 .def_1139))
(define-fun .def_1133 () Bool (and param_etat_me4.next param_etat_me2.next))
(define-fun .def_1141 () Bool (or .def_1133 .def_1140))
(define-fun .def_1143 () Bool (or .def_1141 .def_1142))
(define-fun .def_1144 () Bool (not .def_1143))
(define-fun .def_1145 () Bool (= call_excludes4.excludes.next .def_1144))
(define-fun .def_1131 () Bool (= call_mesi.flby4.next call_mesi.invalid_me.next))
(define-fun .def_1129 () Bool (= call_mesi.flby3.next call_mesi.shared_me.next))
(define-fun .def_1127 () Bool (= call_mesi.flby2.next call_mesi.exclusive_me.next))
(define-fun .def_1125 () Bool (= call_mesi.flby.next call_mesi.modified_me.next))
(define-fun .def_1121 () Bool (= call_mesi.ite30.next call_mesi.ite31.next))
(define-fun .def_1122 () Bool (or param_etat_me2.next .def_1121))
(define-fun .def_1118 () Bool (= call_mesi.ite26.next call_mesi.ite31.next))
(define-fun .def_1103 () Bool (not param_etat_me2.next))
(define-fun .def_1119 () Bool (or .def_1103 .def_1118))
(define-fun .def_1115 () Bool (= call_mesi.ite22.next call_mesi.ite23.next))
(define-fun .def_1116 () Bool (or param_etat_me2.next .def_1115))
(define-fun .def_1112 () Bool (= call_mesi.ite18.next call_mesi.ite23.next))
(define-fun .def_1113 () Bool (or .def_1103 .def_1112))
(define-fun .def_1109 () Bool (= call_mesi.ite14.next call_mesi.ite15.next))
(define-fun .def_1110 () Bool (or param_etat_me2.next .def_1109))
(define-fun .def_1106 () Bool (= call_mesi.ite10.next call_mesi.ite15.next))
(define-fun .def_1107 () Bool (or .def_1103 .def_1106))
(define-fun .def_1102 () Bool (= call_mesi.ite2.next call_mesi.ite7.next))
(define-fun .def_1104 () Bool (or .def_1102 .def_1103))
(define-fun .def_1099 () Bool (= call_mesi.ite6.next call_mesi.ite7.next))
(define-fun .def_1101 () Bool (or .def_1099 param_etat_me2.next))
(define-fun .def_1105 () Bool (and .def_1101 .def_1104))
(define-fun .def_1108 () Bool (and .def_1105 .def_1107))
(define-fun .def_1111 () Bool (and .def_1108 .def_1110))
(define-fun .def_1114 () Bool (and .def_1111 .def_1113))
(define-fun .def_1117 () Bool (and .def_1114 .def_1116))
(define-fun .def_1120 () Bool (and .def_1117 .def_1119))
(define-fun .def_1123 () Bool (and .def_1120 .def_1122))
(define-fun .def_1095 () Bool (= call_mesi.ite32.next call_mesi.ite31.next))
(define-fun .def_1096 () Bool (or param_etat_me1.next .def_1095))
(define-fun .def_1091 () Bool (= call_mesi.ite25.next call_mesi.ite32.next))
(define-fun .def_1074 () Bool (not param_etat_me1.next))
(define-fun .def_1092 () Bool (or .def_1074 .def_1091))
(define-fun .def_1088 () Bool (= call_mesi.ite24.next call_mesi.ite23.next))
(define-fun .def_1089 () Bool (or param_etat_me1.next .def_1088))
(define-fun .def_1084 () Bool (= call_mesi.ite17.next call_mesi.ite24.next))
(define-fun .def_1085 () Bool (or .def_1074 .def_1084))
(define-fun .def_1081 () Bool (= call_mesi.ite16.next call_mesi.ite15.next))
(define-fun .def_1082 () Bool (or param_etat_me1.next .def_1081))
(define-fun .def_1077 () Bool (= call_mesi.ite9.next call_mesi.ite16.next))
(define-fun .def_1078 () Bool (or .def_1074 .def_1077))
(define-fun .def_1073 () Bool (= call_mesi.ite.next call_mesi.ite8.next))
(define-fun .def_1075 () Bool (or .def_1073 .def_1074))
(define-fun .def_1070 () Bool (= call_mesi.ite8.next call_mesi.ite7.next))
(define-fun .def_1072 () Bool (or .def_1070 param_etat_me1.next))
(define-fun .def_1076 () Bool (and .def_1072 .def_1075))
(define-fun .def_1079 () Bool (and .def_1076 .def_1078))
(define-fun .def_1083 () Bool (and .def_1079 .def_1082))
(define-fun .def_1086 () Bool (and .def_1083 .def_1085))
(define-fun .def_1090 () Bool (and .def_1086 .def_1089))
(define-fun .def_1093 () Bool (and .def_1090 .def_1092))
(define-fun .def_1097 () Bool (and .def_1093 .def_1096))
(define-fun .def_1067 () Bool (= env.next call_Sofar.Sofar.next))
(define-fun .def_1064 () Bool (= invalid_me.next call_mesi.invalid_me.next))
(define-fun .def_1060 () Bool (= shared_me.next call_mesi.shared_me.next))
(define-fun .def_1057 () Bool (= exclusive_me.next call_mesi.exclusive_me.next))
(define-fun .def_1053 () Bool (= modified_me.next call_mesi.modified_me.next))
(define-fun .def_1047 () Bool (= call_mesi.ite29.next call_mesi.ite30.next))
(define-fun .def_1048 () Bool (or param_etat_me3.next .def_1047))
(define-fun .def_1044 () Bool (= call_mesi.ite27.next call_mesi.ite30.next))
(define-fun .def_1026 () Bool (not param_etat_me3.next))
(define-fun .def_1045 () Bool (or .def_1026 .def_1044))
(define-fun .def_1040 () Bool (= call_mesi.ite21.next call_mesi.ite22.next))
(define-fun .def_1041 () Bool (or param_etat_me3.next .def_1040))
(define-fun .def_1037 () Bool (= call_mesi.ite19.next call_mesi.ite22.next))
(define-fun .def_1038 () Bool (or .def_1026 .def_1037))
(define-fun .def_1033 () Bool (= call_mesi.ite13.next call_mesi.ite14.next))
(define-fun .def_1034 () Bool (or param_etat_me3.next .def_1033))
(define-fun .def_1030 () Bool (= call_mesi.ite11.next call_mesi.ite14.next))
(define-fun .def_1031 () Bool (or .def_1026 .def_1030))
(define-fun .def_1025 () Bool (= call_mesi.ite3.next call_mesi.ite6.next))
(define-fun .def_1027 () Bool (or .def_1025 .def_1026))
(define-fun .def_1022 () Bool (= call_mesi.ite5.next call_mesi.ite6.next))
(define-fun .def_1024 () Bool (or .def_1022 param_etat_me3.next))
(define-fun .def_1028 () Bool (and .def_1024 .def_1027))
(define-fun .def_1032 () Bool (and .def_1028 .def_1031))
(define-fun .def_1035 () Bool (and .def_1032 .def_1034))
(define-fun .def_1039 () Bool (and .def_1035 .def_1038))
(define-fun .def_1042 () Bool (and .def_1039 .def_1041))
(define-fun .def_1046 () Bool (and .def_1042 .def_1045))
(define-fun .def_1049 () Bool (and .def_1046 .def_1048))
(define-fun .def_1018 () Bool (<= 0 shared_me.next))
(define-fun .def_1016 () Bool (not env.next))
(define-fun .def_1019 () Bool (or .def_1016 .def_1018))
(define-fun .def_1020 () Bool (= _OK_.next .def_1019))
(define-fun .def_1050 () Bool (and .def_1020 .def_1049))
(define-fun .def_1054 () Bool (and .def_1050 .def_1053))
(define-fun .def_1058 () Bool (and .def_1054 .def_1057))
(define-fun .def_1061 () Bool (and .def_1058 .def_1060))
(define-fun .def_1065 () Bool (and .def_1061 .def_1064))
(define-fun .def_1068 () Bool (and .def_1065 .def_1067))
(define-fun .def_1098 () Bool (and .def_1068 .def_1097))
(define-fun .def_1124 () Bool (and .def_1098 .def_1123))
(define-fun .def_1126 () Bool (and .def_1124 .def_1125))
(define-fun .def_1128 () Bool (and .def_1126 .def_1127))
(define-fun .def_1130 () Bool (and .def_1128 .def_1129))
(define-fun .def_1132 () Bool (and .def_1130 .def_1131))
(define-fun .def_1146 () Bool (and .def_1132 .def_1145))
(define-fun .def_1148 () Bool (and .def_1146 .def_1147))
(define-fun .def_798 () Bool (= call_Sofar.flby call_Sofar.Sofar))
(define-fun .def_793 () Bool (and param_etat_me4 param_etat_me3))
(define-fun .def_788 () Bool (and param_etat_me1 param_etat_me2))
(define-fun .def_787 () Bool (and param_etat_me3 param_etat_me1))
(define-fun .def_789 () Bool (or .def_787 .def_788))
(define-fun .def_786 () Bool (and param_etat_me4 param_etat_me1))
(define-fun .def_790 () Bool (or .def_786 .def_789))
(define-fun .def_785 () Bool (and param_etat_me3 param_etat_me2))
(define-fun .def_791 () Bool (or .def_785 .def_790))
(define-fun .def_784 () Bool (and param_etat_me4 param_etat_me2))
(define-fun .def_792 () Bool (or .def_784 .def_791))
(define-fun .def_794 () Bool (or .def_792 .def_793))
(define-fun .def_795 () Bool (not .def_794))
(define-fun .def_796 () Bool (= call_excludes4.excludes .def_795))
(define-fun .def_782 () Bool (= call_mesi.flby4 call_mesi.invalid_me))
(define-fun .def_780 () Bool (= call_mesi.flby3 call_mesi.shared_me))
(define-fun .def_778 () Bool (= call_mesi.flby2 call_mesi.exclusive_me))
(define-fun .def_776 () Bool (= call_mesi.flby call_mesi.modified_me))
(define-fun .def_772 () Bool (= call_mesi.ite30 call_mesi.ite31))
(define-fun .def_773 () Bool (or param_etat_me2 .def_772))
(define-fun .def_769 () Bool (= call_mesi.ite31 call_mesi.ite26))
(define-fun .def_751 () Bool (not param_etat_me2))
(define-fun .def_770 () Bool (or .def_751 .def_769))
(define-fun .def_765 () Bool (= call_mesi.ite22 call_mesi.ite23))
(define-fun .def_766 () Bool (or param_etat_me2 .def_765))
(define-fun .def_762 () Bool (= call_mesi.ite23 call_mesi.ite18))
(define-fun .def_763 () Bool (or .def_751 .def_762))
(define-fun .def_758 () Bool (= call_mesi.ite14 call_mesi.ite15))
(define-fun .def_759 () Bool (or param_etat_me2 .def_758))
(define-fun .def_755 () Bool (= call_mesi.ite15 call_mesi.ite10))
(define-fun .def_756 () Bool (or .def_751 .def_755))
(define-fun .def_750 () Bool (= call_mesi.ite7 call_mesi.ite2))
(define-fun .def_752 () Bool (or .def_750 .def_751))
(define-fun .def_746 () Bool (= call_mesi.ite6 call_mesi.ite7))
(define-fun .def_748 () Bool (or .def_746 param_etat_me2))
(define-fun .def_753 () Bool (and .def_748 .def_752))
(define-fun .def_757 () Bool (and .def_753 .def_756))
(define-fun .def_760 () Bool (and .def_757 .def_759))
(define-fun .def_764 () Bool (and .def_760 .def_763))
(define-fun .def_767 () Bool (and .def_764 .def_766))
(define-fun .def_771 () Bool (and .def_767 .def_770))
(define-fun .def_774 () Bool (and .def_771 .def_773))
(define-fun .def_742 () Bool (= call_mesi.ite32 call_mesi.ite31))
(define-fun .def_743 () Bool (or param_etat_me1 .def_742))
(define-fun .def_738 () Bool (= call_mesi.ite25 call_mesi.ite32))
(define-fun .def_716 () Bool (not param_etat_me1))
(define-fun .def_739 () Bool (or .def_716 .def_738))
(define-fun .def_733 () Bool (= call_mesi.ite24 call_mesi.ite23))
(define-fun .def_734 () Bool (or param_etat_me1 .def_733))
(define-fun .def_729 () Bool (= call_mesi.ite17 call_mesi.ite24))
(define-fun .def_730 () Bool (or .def_716 .def_729))
(define-fun .def_724 () Bool (= call_mesi.ite16 call_mesi.ite15))
(define-fun .def_725 () Bool (or param_etat_me1 .def_724))
(define-fun .def_720 () Bool (= call_mesi.ite9 call_mesi.ite16))
(define-fun .def_721 () Bool (or .def_716 .def_720))
(define-fun .def_715 () Bool (= call_mesi.ite call_mesi.ite8))
(define-fun .def_717 () Bool (or .def_715 .def_716))
(define-fun .def_712 () Bool (= call_mesi.ite8 call_mesi.ite7))
(define-fun .def_714 () Bool (or .def_712 param_etat_me1))
(define-fun .def_718 () Bool (and .def_714 .def_717))
(define-fun .def_722 () Bool (and .def_718 .def_721))
(define-fun .def_726 () Bool (and .def_722 .def_725))
(define-fun .def_731 () Bool (and .def_726 .def_730))
(define-fun .def_735 () Bool (and .def_731 .def_734))
(define-fun .def_740 () Bool (and .def_735 .def_739))
(define-fun .def_744 () Bool (and .def_740 .def_743))
(define-fun .def_708 () Bool (= env call_Sofar.Sofar))
(define-fun .def_705 () Bool (= invalid_me call_mesi.invalid_me))
(define-fun .def_701 () Bool (= shared_me call_mesi.shared_me))
(define-fun .def_698 () Bool (= exclusive_me call_mesi.exclusive_me))
(define-fun .def_694 () Bool (= modified_me call_mesi.modified_me))
(define-fun .def_688 () Bool (= call_mesi.ite29 call_mesi.ite30))
(define-fun .def_689 () Bool (or param_etat_me3 .def_688))
(define-fun .def_685 () Bool (= call_mesi.ite27 call_mesi.ite30))
(define-fun .def_666 () Bool (not param_etat_me3))
(define-fun .def_686 () Bool (or .def_666 .def_685))
(define-fun .def_680 () Bool (= call_mesi.ite21 call_mesi.ite22))
(define-fun .def_681 () Bool (or param_etat_me3 .def_680))
(define-fun .def_677 () Bool (= call_mesi.ite19 call_mesi.ite22))
(define-fun .def_678 () Bool (or .def_666 .def_677))
(define-fun .def_673 () Bool (= call_mesi.ite13 call_mesi.ite14))
(define-fun .def_674 () Bool (or param_etat_me3 .def_673))
(define-fun .def_670 () Bool (= call_mesi.ite11 call_mesi.ite14))
(define-fun .def_671 () Bool (or .def_666 .def_670))
(define-fun .def_665 () Bool (= call_mesi.ite3 call_mesi.ite6))
(define-fun .def_667 () Bool (or .def_665 .def_666))
(define-fun .def_662 () Bool (= call_mesi.ite5 call_mesi.ite6))
(define-fun .def_664 () Bool (or .def_662 param_etat_me3))
(define-fun .def_668 () Bool (and .def_664 .def_667))
(define-fun .def_672 () Bool (and .def_668 .def_671))
(define-fun .def_675 () Bool (and .def_672 .def_674))
(define-fun .def_679 () Bool (and .def_675 .def_678))
(define-fun .def_682 () Bool (and .def_679 .def_681))
(define-fun .def_687 () Bool (and .def_682 .def_686))
(define-fun .def_690 () Bool (and .def_687 .def_689))
(define-fun .def_658 () Bool (<= 0 shared_me))
(define-fun .def_656 () Bool (not env))
(define-fun .def_659 () Bool (or .def_656 .def_658))
(define-fun .def_660 () Bool (= _OK_ .def_659))
(define-fun .def_691 () Bool (and .def_660 .def_690))
(define-fun .def_695 () Bool (and .def_691 .def_694))
(define-fun .def_699 () Bool (and .def_695 .def_698))
(define-fun .def_702 () Bool (and .def_699 .def_701))
(define-fun .def_706 () Bool (and .def_702 .def_705))
(define-fun .def_709 () Bool (and .def_706 .def_708))
(define-fun .def_745 () Bool (and .def_709 .def_744))
(define-fun .def_775 () Bool (and .def_745 .def_774))
(define-fun .def_777 () Bool (and .def_775 .def_776))
(define-fun .def_779 () Bool (and .def_777 .def_778))
(define-fun .def_781 () Bool (and .def_779 .def_780))
(define-fun .def_783 () Bool (and .def_781 .def_782))
(define-fun .def_797 () Bool (and .def_783 .def_796))
(define-fun .def_799 () Bool (and .def_797 .def_798))
(define-fun .def_1149 () Bool (and .def_799 .def_1148))
(define-fun .def_1010 () Bool (and call_Sofar.Sofar call_excludes4.excludes.next))
(define-fun .def_1012 () Bool (= .def_1010 call_Sofar.flby.next))
(define-fun .def_1007 () Bool (= call_mesi.ite32.next call_mesi.flby4.next))
(define-fun .def_1003 () Bool (= call_mesi.ite24.next call_mesi.flby3.next))
(define-fun .def_999 () Bool (= call_mesi.ite16.next call_mesi.flby2.next))
(define-fun .def_995 () Bool (= call_mesi.ite8.next call_mesi.flby.next))
(define-fun .def_963 () Bool (<= 1 call_mesi.invalid_me))
(define-fun .def_990 () Bool (= call_mesi.garde_me4.next .def_963))
(define-fun .def_987 () Bool (= call_mesi.ite20.next 0))
(define-fun .def_866 () Bool (not call_mesi.garde_me4.next))
(define-fun .def_988 () Bool (or .def_866 .def_987))
(define-fun .def_984 () Bool (= call_mesi.ite4.next 0))
(define-fun .def_985 () Bool (or .def_866 .def_984))
(define-fun .def_982 () Bool (= call_mesi.ite12.next 1))
(define-fun .def_983 () Bool (or .def_866 .def_982))
(define-fun .def_986 () Bool (and .def_983 .def_985))
(define-fun .def_989 () Bool (and .def_986 .def_988))
(define-fun .def_991 () Bool (and .def_989 .def_990))
(define-fun .def_978 () Bool (<= 1 call_mesi.shared_me))
(define-fun .def_979 () Bool (= call_mesi.garde_me3.next .def_978))
(define-fun .def_975 () Bool (= call_mesi.ite19.next 0))
(define-fun .def_852 () Bool (not call_mesi.garde_me3.next))
(define-fun .def_976 () Bool (or .def_852 .def_975))
(define-fun .def_972 () Bool (= call_mesi.ite3.next 0))
(define-fun .def_973 () Bool (or .def_852 .def_972))
(define-fun .def_970 () Bool (= call_mesi.ite11.next 1))
(define-fun .def_971 () Bool (or .def_852 .def_970))
(define-fun .def_974 () Bool (and .def_971 .def_973))
(define-fun .def_977 () Bool (and .def_974 .def_976))
(define-fun .def_980 () Bool (and .def_977 .def_979))
(define-fun .def_967 () Bool (<= 1 call_mesi.exclusive_me))
(define-fun .def_968 () Bool (= call_mesi.garde_me2.next .def_967))
(define-fun .def_964 () Bool (= call_mesi.garde_me1.next .def_963))
(define-fun .def_960 () Bool (= call_mesi.ite.next 0))
(define-fun .def_838 () Bool (not call_mesi.garde_me1.next))
(define-fun .def_961 () Bool (or .def_838 .def_960))
(define-fun .def_958 () Bool (= call_mesi.ite9.next 0))
(define-fun .def_959 () Bool (or .def_838 .def_958))
(define-fun .def_962 () Bool (and .def_959 .def_961))
(define-fun .def_965 () Bool (and .def_962 .def_964))
(define-fun .def_954 () Bool (= call_mesi.invalid_me call_mesi.ite28.next))
(define-fun .def_955 () Bool (or call_mesi.garde_me4.next .def_954))
(define-fun .def_951 () Bool (= call_mesi.invalid_me call_mesi.ite27.next))
(define-fun .def_952 () Bool (or call_mesi.garde_me3.next .def_951))
(define-fun .def_946 () Bool (= call_mesi.invalid_me call_mesi.ite26.next))
(define-fun .def_949 () Bool (or call_mesi.garde_me2.next .def_946))
(define-fun .def_806 () Bool (not call_mesi.garde_me2.next))
(define-fun .def_947 () Bool (or .def_806 .def_946))
(define-fun .def_940 () Int (* (- 1) call_mesi.ite25.next))
(define-fun .def_941 () Int (+ call_mesi.invalid_me .def_940))
(define-fun .def_942 () Bool (= .def_941 1))
(define-fun .def_943 () Bool (or .def_838 .def_942))
(define-fun .def_938 () Bool (= call_mesi.invalid_me call_mesi.ite25.next))
(define-fun .def_939 () Bool (or call_mesi.garde_me1.next .def_938))
(define-fun .def_944 () Bool (and .def_939 .def_943))
(define-fun .def_948 () Bool (and .def_944 .def_947))
(define-fun .def_950 () Bool (and .def_948 .def_949))
(define-fun .def_953 () Bool (and .def_950 .def_952))
(define-fun .def_956 () Bool (and .def_953 .def_955))
(define-fun .def_933 () Bool (= call_mesi.shared_me call_mesi.ite20.next))
(define-fun .def_934 () Bool (or call_mesi.garde_me4.next .def_933))
(define-fun .def_930 () Bool (= call_mesi.shared_me call_mesi.ite19.next))
(define-fun .def_931 () Bool (or call_mesi.garde_me3.next .def_930))
(define-fun .def_922 () Bool (= call_mesi.shared_me call_mesi.ite18.next))
(define-fun .def_927 () Bool (or call_mesi.garde_me2.next .def_922))
(define-fun .def_924 () Bool (= call_mesi.shared_me call_mesi.ite17.next))
(define-fun .def_925 () Bool (or call_mesi.garde_me1.next .def_924))
(define-fun .def_923 () Bool (or .def_806 .def_922))
(define-fun .def_926 () Bool (and .def_923 .def_925))
(define-fun .def_928 () Bool (and .def_926 .def_927))
(define-fun .def_932 () Bool (and .def_928 .def_931))
(define-fun .def_935 () Bool (and .def_932 .def_934))
(define-fun .def_917 () Bool (= call_mesi.exclusive_me call_mesi.ite12.next))
(define-fun .def_918 () Bool (or call_mesi.garde_me4.next .def_917))
(define-fun .def_914 () Bool (= call_mesi.exclusive_me call_mesi.ite11.next))
(define-fun .def_915 () Bool (or call_mesi.garde_me3.next .def_914))
(define-fun .def_910 () Bool (= call_mesi.exclusive_me call_mesi.ite10.next))
(define-fun .def_911 () Bool (or call_mesi.garde_me2.next .def_910))
(define-fun .def_907 () Bool (= call_mesi.exclusive_me call_mesi.ite9.next))
(define-fun .def_908 () Bool (or call_mesi.garde_me1.next .def_907))
(define-fun .def_902 () Int (* (- 1) call_mesi.ite10.next))
(define-fun .def_903 () Int (+ call_mesi.exclusive_me .def_902))
(define-fun .def_904 () Bool (= .def_903 1))
(define-fun .def_905 () Bool (or .def_806 .def_904))
(define-fun .def_909 () Bool (and .def_905 .def_908))
(define-fun .def_912 () Bool (and .def_909 .def_911))
(define-fun .def_916 () Bool (and .def_912 .def_915))
(define-fun .def_919 () Bool (and .def_916 .def_918))
(define-fun .def_897 () Bool (= call_mesi.invalid_me call_mesi.ite29.next))
(define-fun .def_898 () Bool (or param_etat_me4.next .def_897))
(define-fun .def_894 () Bool (= call_mesi.ite28.next call_mesi.ite29.next))
(define-fun .def_874 () Bool (not param_etat_me4.next))
(define-fun .def_895 () Bool (or .def_874 .def_894))
(define-fun .def_890 () Bool (= call_mesi.shared_me call_mesi.ite21.next))
(define-fun .def_891 () Bool (or param_etat_me4.next .def_890))
(define-fun .def_887 () Bool (= call_mesi.ite20.next call_mesi.ite21.next))
(define-fun .def_888 () Bool (or .def_874 .def_887))
(define-fun .def_882 () Bool (= call_mesi.exclusive_me call_mesi.ite13.next))
(define-fun .def_883 () Bool (or param_etat_me4.next .def_882))
(define-fun .def_879 () Bool (= call_mesi.ite12.next call_mesi.ite13.next))
(define-fun .def_880 () Bool (or .def_874 .def_879))
(define-fun .def_873 () Bool (= call_mesi.ite4.next call_mesi.ite5.next))
(define-fun .def_875 () Bool (or .def_873 .def_874))
(define-fun .def_870 () Bool (= call_mesi.modified_me call_mesi.ite5.next))
(define-fun .def_872 () Bool (or .def_870 param_etat_me4.next))
(define-fun .def_876 () Bool (and .def_872 .def_875))
(define-fun .def_881 () Bool (and .def_876 .def_880))
(define-fun .def_884 () Bool (and .def_881 .def_883))
(define-fun .def_889 () Bool (and .def_884 .def_888))
(define-fun .def_892 () Bool (and .def_889 .def_891))
(define-fun .def_896 () Bool (and .def_892 .def_895))
(define-fun .def_899 () Bool (and .def_896 .def_898))
(define-fun .def_856 () Int (* (- 1) call_mesi.ite28.next))
(define-fun .def_861 () Int (+ call_mesi.invalid_me .def_856))
(define-fun .def_862 () Int (+ call_mesi.shared_me .def_861))
(define-fun .def_863 () Int (+ call_mesi.exclusive_me .def_862))
(define-fun .def_864 () Int (+ call_mesi.modified_me .def_863))
(define-fun .def_865 () Bool (= .def_864 1))
(define-fun .def_867 () Bool (or .def_865 .def_866))
(define-fun .def_842 () Int (* (- 1) call_mesi.ite27.next))
(define-fun .def_847 () Int (+ call_mesi.invalid_me .def_842))
(define-fun .def_848 () Int (+ call_mesi.shared_me .def_847))
(define-fun .def_849 () Int (+ call_mesi.exclusive_me .def_848))
(define-fun .def_850 () Int (+ call_mesi.modified_me .def_849))
(define-fun .def_851 () Bool (= .def_850 1))
(define-fun .def_853 () Bool (or .def_851 .def_852))
(define-fun .def_832 () Int (* (- 1) call_mesi.shared_me))
(define-fun .def_833 () Int (+ .def_832 call_mesi.ite17.next))
(define-fun .def_834 () Int (* (- 1) call_mesi.exclusive_me))
(define-fun .def_835 () Int (+ .def_834 .def_833))
(define-fun .def_836 () Int (+ call_mesi.modified_me .def_835))
(define-fun .def_837 () Bool (= .def_836 0))
(define-fun .def_839 () Bool (or .def_837 .def_838))
(define-fun .def_822 () Bool (= call_mesi.modified_me call_mesi.ite4.next))
(define-fun .def_824 () Bool (or .def_822 call_mesi.garde_me4.next))
(define-fun .def_817 () Bool (= call_mesi.modified_me call_mesi.ite3.next))
(define-fun .def_819 () Bool (or .def_817 call_mesi.garde_me3.next))
(define-fun .def_813 () Bool (= call_mesi.modified_me call_mesi.ite2.next))
(define-fun .def_814 () Bool (or call_mesi.garde_me2.next .def_813))
(define-fun .def_809 () Bool (= call_mesi.modified_me call_mesi.ite.next))
(define-fun .def_811 () Bool (or .def_809 call_mesi.garde_me1.next))
(define-fun .def_802 () Int (* (- 1) call_mesi.ite2.next))
(define-fun .def_803 () Int (+ call_mesi.modified_me .def_802))
(define-fun .def_804 () Bool (= .def_803 1))
(define-fun .def_807 () Bool (or .def_804 .def_806))
(define-fun .def_812 () Bool (and .def_807 .def_811))
(define-fun .def_815 () Bool (and .def_812 .def_814))
(define-fun .def_820 () Bool (and .def_815 .def_819))
(define-fun .def_825 () Bool (and .def_820 .def_824))
(define-fun .def_840 () Bool (and .def_825 .def_839))
(define-fun .def_854 () Bool (and .def_840 .def_853))
(define-fun .def_868 () Bool (and .def_854 .def_867))
(define-fun .def_900 () Bool (and .def_868 .def_899))
(define-fun .def_920 () Bool (and .def_900 .def_919))
(define-fun .def_936 () Bool (and .def_920 .def_935))
(define-fun .def_957 () Bool (and .def_936 .def_956))
(define-fun .def_966 () Bool (and .def_957 .def_965))
(define-fun .def_969 () Bool (and .def_966 .def_968))
(define-fun .def_981 () Bool (and .def_969 .def_980))
(define-fun .def_992 () Bool (and .def_981 .def_991))
(define-fun .def_996 () Bool (and .def_992 .def_995))
(define-fun .def_1000 () Bool (and .def_996 .def_999))
(define-fun .def_1004 () Bool (and .def_1000 .def_1003))
(define-fun .def_1008 () Bool (and .def_1004 .def_1007))
(define-fun .def_1013 () Bool (and .def_1008 .def_1012))
(define-fun .def_1150 () Bool (and .def_1013 .def_1149))
(assert .def_1150)
